HUN,8,6,369
2,20,1,24,0,2,5,13,4,5,3,9
2,21,0,17,1,19,4,1,5,10,3,10
0,23,1,23,2,24,5,5,4,10,3,22
1,24,0,2,2,16,4,17,3,4,5,30
1,28,0,3,2,28,5,20,4,8,3,15
1,20,0,12,2,16,4,29,5,14,3,2
0,22,1,20,2,2,3,5,4,23,5,24
1,3,0,27,2,29,4,26,3,10,5,9
